c Sudoku solution
p cnf 729 0
214 0
237 0
243 0
258 0
355 0
362 0
384 0
457 0
464 0
475 0
545 0
553 0
572 0
588 0
626 0
659 0
687 0
738 0
744 0
154 0
777 0
791 0
817 0
527 0
833 0
896 0
486 0
671 0
566 0
668 0
441 0
642 0
276 0
936 0
756 0
989 0
331 0
511 0
116 0
346 0
397 0
924 0
821 0
852 0
951 0
885 0
874 0
869 0
848 0
947 0
149 0
167 0
261 0
181 0
379 0
173 0
198 0
229 0
719 0
978 0
783 0
992 0
722 0
915 0
765 0
963 0
412 0
439 0
428 0
613 0
635 0
534 0
493 0
694 0
599 0
318 0
323 0
125 0
132 0
282 0
295 0
